certificates/rado_a12_c8_N69.cnf
c Rad2 upper bound instance: x1 + 12*x2 - x3 = 8, interval [1,69]
p cnf 69 420
1 5 0
-1 -5 0
1 2 17 0
-1 -2 -17 0
1 3 29 0
-1 -3 -29 0
1 4 41 0
-1 -4 -41 0
1 5 53 0
-1 -5 -53 0
1 6 65 0
-1 -6 -65 0
1 2 6 0
-1 -2 -6 0
2 18 0
-2 -18 0
2 3 30 0
-2 -3 -30 0
2 4 42 0
-2 -4 -42 0
2 5 54 0
-2 -5 -54 0
2 6 66 0
-2 -6 -66 0
1 3 7 0
-1 -3 -7 0
2 3 19 0
-2 -3 -19 0
3 31 0
-3 -31 0
3 4 43 0
-3 -4 -43 0
3 5 55 0
-3 -5 -55 0
3 6 67 0
-3 -6 -67 0
1 4 8 0
-1 -4 -8 0
2 4 20 0
-2 -4 -20 0
3 4 32 0
-3 -4 -32 0
4 44 0
-4 -44 0
4 5 56 0
-4 -5 -56 0
4 6 68 0
-4 -6 -68 0
1 5 9 0
-1 -5 -9 0
2 5 21 0
-2 -5 -21 0
3 5 33 0
-3 -5 -33 0
4 5 45 0
-4 -5 -45 0
5 57 0
-5 -57 0
5 6 69 0
-5 -6 -69 0
1 6 10 0
-1 -6 -10 0
2 6 22 0
-2 -6 -22 0
3 6 34 0
-3 -6 -34 0
4 6 46 0
-4 -6 -46 0
5 6 58 0
-5 -6 -58 0
1 7 11 0
-1 -7 -11 0
2 7 23 0
-2 -7 -23 0
3 7 35 0
-3 -7 -35 0
4 7 47 0
-4 -7 -47 0
5 7 59 0
-5 -7 -59 0
1 8 12 0
-1 -8 -12 0
2 8 24 0
-2 -8 -24 0
3 8 36 0
-3 -8 -36 0
4 8 48 0
-4 -8 -48 0
5 8 60 0
-5 -8 -60 0
1 9 13 0
-1 -9 -13 0
2 9 25 0
-2 -9 -25 0
3 9 37 0
-3 -9 -37 0
4 9 49 0
-4 -9 -49 0
5 9 61 0
-5 -9 -61 0
1 10 14 0
-1 -10 -14 0
2 10 26 0
-2 -10 -26 0
3 10 38 0
-3 -10 -38 0
4 10 50 0
-4 -10 -50 0
5 10 62 0
-5 -10 -62 0
1 11 15 0
-1 -11 -15 0
2 11 27 0
-2 -11 -27 0
3 11 39 0
-3 -11 -39 0
4 11 51 0
-4 -11 -51 0
5 11 63 0
-5 -11 -63 0
1 12 16 0
-1 -12 -16 0
2 12 28 0
-2 -12 -28 0
3 12 40 0
-3 -12 -40 0
4 12 52 0
-4 -12 -52 0
5 12 64 0
-5 -12 -64 0
1 13 17 0
-1 -13 -17 0
2 13 29 0
-2 -13 -29 0
3 13 41 0
-3 -13 -41 0
4 13 53 0
-4 -13 -53 0
5 13 65 0
-5 -13 -65 0
1 14 18 0
-1 -14 -18 0
2 14 30 0
-2 -14 -30 0
3 14 42 0
-3 -14 -42 0
4 14 54 0
-4 -14 -54 0
5 14 66 0
-5 -14 -66 0
1 15 19 0
-1 -15 -19 0
2 15 31 0
-2 -15 -31 0
3 15 43 0
-3 -15 -43 0
4 15 55 0
-4 -15 -55 0
5 15 67 0
-5 -15 -67 0
1 16 20 0
-1 -16 -20 0
2 16 32 0
-2 -16 -32 0
3 16 44 0
-3 -16 -44 0
4 16 56 0
-4 -16 -56 0
5 16 68 0
-5 -16 -68 0
1 17 21 0
-1 -17 -21 0
2 17 33 0
-2 -17 -33 0
3 17 45 0
-3 -17 -45 0
4 17 57 0
-4 -17 -57 0
5 17 69 0
-5 -17 -69 0
1 18 22 0
-1 -18 -22 0
2 18 34 0
-2 -18 -34 0
3 18 46 0
-3 -18 -46 0
4 18 58 0
-4 -18 -58 0
1 19 23 0
-1 -19 -23 0
2 19 35 0
-2 -19 -35 0
3 19 47 0
-3 -19 -47 0
4 19 59 0
-4 -19 -59 0
1 20 24 0
-1 -20 -24 0
2 20 36 0
-2 -20 -36 0
3 20 48 0
-3 -20 -48 0
4 20 60 0
-4 -20 -60 0
1 21 25 0
-1 -21 -25 0
2 21 37 0
-2 -21 -37 0
3 21 49 0
-3 -21 -49 0
4 21 61 0
-4 -21 -61 0
1 22 26 0
-1 -22 -26 0
2 22 38 0
-2 -22 -38 0
3 22 50 0
-3 -22 -50 0
4 22 62 0
-4 -22 -62 0
1 23 27 0
-1 -23 -27 0
2 23 39 0
-2 -23 -39 0
3 23 51 0
-3 -23 -51 0
4 23 63 0
-4 -23 -63 0
1 24 28 0
-1 -24 -28 0
2 24 40 0
-2 -24 -40 0
3 24 52 0
-3 -24 -52 0
4 24 64 0
-4 -24 -64 0
1 25 29 0
-1 -25 -29 0
2 25 41 0
-2 -25 -41 0
3 25 53 0
-3 -25 -53 0
4 25 65 0
-4 -25 -65 0
1 26 30 0
-1 -26 -30 0
2 26 42 0
-2 -26 -42 0
3 26 54 0
-3 -26 -54 0
4 26 66 0
-4 -26 -66 0
1 27 31 0
-1 -27 -31 0
2 27 43 0
-2 -27 -43 0
3 27 55 0
-3 -27 -55 0
4 27 67 0
-4 -27 -67 0
1 28 32 0
-1 -28 -32 0
2 28 44 0
-2 -28 -44 0
3 28 56 0
-3 -28 -56 0
4 28 68 0
-4 -28 -68 0
1 29 33 0
-1 -29 -33 0
2 29 45 0
-2 -29 -45 0
3 29 57 0
-3 -29 -57 0
4 29 69 0
-4 -29 -69 0
1 30 34 0
-1 -30 -34 0
2 30 46 0
-2 -30 -46 0
3 30 58 0
-3 -30 -58 0
1 31 35 0
-1 -31 -35 0
2 31 47 0
-2 -31 -47 0
3 31 59 0
-3 -31 -59 0
1 32 36 0
-1 -32 -36 0
2 32 48 0
-2 -32 -48 0
3 32 60 0
-3 -32 -60 0
1 33 37 0
-1 -33 -37 0
2 33 49 0
-2 -33 -49 0
3 33 61 0
-3 -33 -61 0
1 34 38 0
-1 -34 -38 0
2 34 50 0
-2 -34 -50 0
3 34 62 0
-3 -34 -62 0
1 35 39 0
-1 -35 -39 0
2 35 51 0
-2 -35 -51 0
3 35 63 0
-3 -35 -63 0
1 36 40 0
-1 -36 -40 0
2 36 52 0
-2 -36 -52 0
3 36 64 0
-3 -36 -64 0
1 37 41 0
-1 -37 -41 0
2 37 53 0
-2 -37 -53 0
3 37 65 0
-3 -37 -65 0
1 38 42 0
-1 -38 -42 0
2 38 54 0
-2 -38 -54 0
3 38 66 0
-3 -38 -66 0
1 39 43 0
-1 -39 -43 0
2 39 55 0
-2 -39 -55 0
3 39 67 0
-3 -39 -67 0
1 40 44 0
-1 -40 -44 0
2 40 56 0
-2 -40 -56 0
3 40 68 0
-3 -40 -68 0
1 41 45 0
-1 -41 -45 0
2 41 57 0
-2 -41 -57 0
3 41 69 0
-3 -41 -69 0
1 42 46 0
-1 -42 -46 0
2 42 58 0
-2 -42 -58 0
1 43 47 0
-1 -43 -47 0
2 43 59 0
-2 -43 -59 0
1 44 48 0
-1 -44 -48 0
2 44 60 0
-2 -44 -60 0
1 45 49 0
-1 -45 -49 0
2 45 61 0
-2 -45 -61 0
1 46 50 0
-1 -46 -50 0
2 46 62 0
-2 -46 -62 0
1 47 51 0
-1 -47 -51 0
2 47 63 0
-2 -47 -63 0
1 48 52 0
-1 -48 -52 0
2 48 64 0
-2 -48 -64 0
1 49 53 0
-1 -49 -53 0
2 49 65 0
-2 -49 -65 0
1 50 54 0
-1 -50 -54 0
2 50 66 0
-2 -50 -66 0
1 51 55 0
-1 -51 -55 0
2 51 67 0
-2 -51 -67 0
1 52 56 0
-1 -52 -56 0
2 52 68 0
-2 -52 -68 0
1 53 57 0
-1 -53 -57 0
2 53 69 0
-2 -53 -69 0
1 54 58 0
-1 -54 -58 0
1 55 59 0
-1 -55 -59 0
1 56 60 0
-1 -56 -60 0
1 57 61 0
-1 -57 -61 0
1 58 62 0
-1 -58 -62 0
1 59 63 0
-1 -59 -63 0
1 60 64 0
-1 -60 -64 0
1 61 65 0
-1 -61 -65 0
1 62 66 0
-1 -62 -66 0
1 63 67 0
-1 -63 -67 0
1 64 68 0
-1 -64 -68 0
1 65 69 0
-1 -65 -69 0
