certificates/rado_a12_c8_N69.drat
-65 -69 0
d -65 -1 -69 0
13 17 65 0
-5 -69 0
-69 0
65 0
5 0
-1 0
-57 0
-13 0
61 0
53 0
17 0
9 0
0
